HFSDDW
15	12	4
0	46	1	67	2	57	3	1
0	49	1	85	2	58	3	90
0	80	1	41	2	31	3	11
0	3	1	55	2	6	3	72
0	58	1	35	2	16	3	94
0	45	1	62	2	7	3	60
0	99	1	20	2	75	3	43
0	70	1	39	2	24	3	85
0	48	1	41	2	30	3	21
0	84	1	91	2	59	3	70
0	89	1	56	2	66	3	13
0	38	1	55	2	64	3	57
0	29	1	11	2	93	3	92
0	7	1	19	2	96	3	83
0	61	1	96	2	1	3	29
LBCmax: 370
RELDUE
-1	60	8	9
-1	71	9	3
-1	82	4	6
-1	128	2	2
-1	75	6	5
-1	139	3	8
-1	178	3	5
-1	173	5	6
-1	94	8	9
-1	225	3	6
-1	232	7	4
-1	186	3	9
-1	205	9	9
-1	137	1	3
-1	49	4	3
DDW
56	64
68	74
71	93
124	132
74	76
114	164
153	203
147	199
83	105
191	259
188	276
184	188
178	232
110	164
40	58
